&CONTROL
calculation = 'scf'
restart_mode='from_scratch'
prefix='c6n6',
outdir = './tmp'
pseudo_dir = '/leonardo_work/IscrC_ASPECT/pseudo',
wf_collect = .true.
/
&SYSTEM
ibrav = 4
ntyp = 2
nat = 12
celldm(1) = 13.45516161
celldm(3) = 3.0
ecutwfc = 120
assume_isolated = '2D'
/
&ELECTRONS
mixing_mode = 'plain'
mixing_beta = 0.7
conv_thr = 1.0d-12
/
&IONS
ion_dynamics = 'bfgs'
/
ATOMIC_SPECIES
C 12.011 C.upf
N 14.007 N.upf
ATOMIC_POSITIONS crystal
N 0.4437987322 0.2218991941 0.5000000000
C 0.5611932742 0.4388046261 0.5000000000
N 0.7780994747 0.5562009555 0.5000000000
C 0.5611948042 0.1223879625 0.5000000000
N 0.7781008829 0.2219004437 0.5000000000
C 0.8776115898 0.4388058641 0.5000000000
C 0.1223883571 0.5611952366 0.5000000000
N 0.2219002375 0.7781009051 0.5000000000
C 0.4388064029 0.8776117043 0.5000000000
N 0.2218993425 0.4437993387 0.5000000000
C 0.4388055692 0.5611939373 0.5000000000
N 0.5562013327 0.7780998321 0.5000000000
K_POINTS automatic
6 6 1 0 0 0

