!Main input file of Wannier90 suite (c6n6.win)

begin projections
random
end projections
guiding_centres=true

num_bands = 50
num_wann = 8

iprint = 2
dis_win_min = -7.2500
dis_win_max = -0.6740
dis_froz_min = -6.2985
dis_froz_max = -3.9955
num_iter = 10000
mp_grid : 9 9 1

begin unit_cell_cart
bohr
13.45516161 0.000000000 0.00000000
-6.72758081 11.65251177 0.00000000
0.000000000 0.000000000 40.3654848
end unit_cell_cart

write_u_matrices = .true.
write_xyz = .true.

BANDS_PLOT = TRUE
BANDS_PLOT_FORMAT = gnuplot
BANDS_NUM_POINTS = 100

BEGIN KPOINT_PATH
G 0.0000 0.0000 0.0000 M 0.5000 0.0000 0.0000
M 0.5000 0.0000 0.0000 K 0.3333 0.3333 0.0000
K 0.3333 0.3333 0.0000 G 0.0000 0.0000 0.0000
END KPOINT_PATH

begin atoms_frac
N 0.4437987322 0.2218991941 0.5000000000
C 0.5611932742 0.4388046261 0.5000000000
N 0.7780994747 0.5562009555 0.5000000000
C 0.5611948042 0.1223879625 0.5000000000
N 0.7781008829 0.2219004437 0.5000000000
C 0.8776115898 0.4388058641 0.5000000000
C 0.1223883571 0.5611952366 0.5000000000
N 0.2219002375 0.7781009051 0.5000000000
C 0.4388064029 0.8776117043 0.5000000000
N 0.2218993425 0.4437993387 0.5000000000
C 0.4388055692 0.5611939373 0.5000000000
N 0.5562013327 0.7780998321 0.5000000000
end atoms_frac

begin kpoints
  0.00000000  0.00000000  0.00000000
  0.00000000  0.11111111  0.00000000
  0.00000000  0.22222222  0.00000000
  0.00000000  0.33333333  0.00000000
  0.00000000  0.44444444  0.00000000
  0.00000000  0.55555556  0.00000000
  0.00000000  0.66666667  0.00000000
  0.00000000  0.77777778  0.00000000
  0.00000000  0.88888889  0.00000000
  0.11111111  0.00000000  0.00000000
  0.11111111  0.11111111  0.00000000
  0.11111111  0.22222222  0.00000000
  0.11111111  0.33333333  0.00000000
  0.11111111  0.44444444  0.00000000
  0.11111111  0.55555556  0.00000000
  0.11111111  0.66666667  0.00000000
  0.11111111  0.77777778  0.00000000
  0.11111111  0.88888889  0.00000000
  0.22222222  0.00000000  0.00000000
  0.22222222  0.11111111  0.00000000
  0.22222222  0.22222222  0.00000000
  0.22222222  0.33333333  0.00000000
  0.22222222  0.44444444  0.00000000
  0.22222222  0.55555556  0.00000000
  0.22222222  0.66666667  0.00000000
  0.22222222  0.77777778  0.00000000
  0.22222222  0.88888889  0.00000000
  0.33333333  0.00000000  0.00000000
  0.33333333  0.11111111  0.00000000
  0.33333333  0.22222222  0.00000000
  0.33333333  0.33333333  0.00000000
  0.33333333  0.44444444  0.00000000
  0.33333333  0.55555556  0.00000000
  0.33333333  0.66666667  0.00000000
  0.33333333  0.77777778  0.00000000
  0.33333333  0.88888889  0.00000000
  0.44444444  0.00000000  0.00000000
  0.44444444  0.11111111  0.00000000
  0.44444444  0.22222222  0.00000000
  0.44444444  0.33333333  0.00000000
  0.44444444  0.44444444  0.00000000
  0.44444444  0.55555556  0.00000000
  0.44444444  0.66666667  0.00000000
  0.44444444  0.77777778  0.00000000
  0.44444444  0.88888889  0.00000000
  0.55555556  0.00000000  0.00000000
  0.55555556  0.11111111  0.00000000
  0.55555556  0.22222222  0.00000000
  0.55555556  0.33333333  0.00000000
  0.55555556  0.44444444  0.00000000
  0.55555556  0.55555556  0.00000000
  0.55555556  0.66666667  0.00000000
  0.55555556  0.77777778  0.00000000
  0.55555556  0.88888889  0.00000000
  0.66666667  0.00000000  0.00000000
  0.66666667  0.11111111  0.00000000
  0.66666667  0.22222222  0.00000000
  0.66666667  0.33333333  0.00000000
  0.66666667  0.44444444  0.00000000
  0.66666667  0.55555556  0.00000000
  0.66666667  0.66666667  0.00000000
  0.66666667  0.77777778  0.00000000
  0.66666667  0.88888889  0.00000000
  0.77777778  0.00000000  0.00000000
  0.77777778  0.11111111  0.00000000
  0.77777778  0.22222222  0.00000000
  0.77777778  0.33333333  0.00000000
  0.77777778  0.44444444  0.00000000
  0.77777778  0.55555556  0.00000000
  0.77777778  0.66666667  0.00000000
  0.77777778  0.77777778  0.00000000
  0.77777778  0.88888889  0.00000000
  0.88888889  0.00000000  0.00000000
  0.88888889  0.11111111  0.00000000
  0.88888889  0.22222222  0.00000000
  0.88888889  0.33333333  0.00000000
  0.88888889  0.44444444  0.00000000
  0.88888889  0.55555556  0.00000000
  0.88888889  0.66666667  0.00000000
  0.88888889  0.77777778  0.00000000
  0.88888889  0.88888889  0.00000000
end kpoints

